c prof.min
c
p min 5 6
c
n 1 15
n 5 -15
c
a 1 2 0 15 1
a 2 1 0 15 1
c
a 1 3 0 15 1
a 3 1 0 15 1
c
a 2 4 0 15 1
a 4 2 0 15 1
c
a 3 4 0 15 1
a 4 3 0 15 1
c
a 3 5 0 15 1
a 5 3 0 15 1
c
a 4 5 0 15 1
a 5 4 0 15 1
c
c eof
